submitit INFO (2023-04-30 19:21:49,228) - Starting with JobEnvironment(job_id=27537, hostname=cpunode26, local_rank=4(5), node=0(1), global_rank=4(5))
submitit INFO (2023-04-30 19:21:49,228) - Loading pickle: /h/30/pashootan/Matrix-Mult-CP/src/../logs/2x2x2_6_Apr30_19:21:46/27537_submitted.pkl
 ! --------------------------------------------------- CP Optimizer 22.1.1.0 --
 ! Satisfiability problem - 72 variables, 184 constraints
 ! TimeLimit            = 7200
 ! Workers              = 8
 ! LogPeriod            = 10000000
 ! RandomSeed           = 585
 ! Initial process time : 0.02s (0.02s extraction + 0.00s propagation)
 !  . Log search space  : 114.1 (before), 114.1 (after)
 !  . Memory usage      : 535.3 kB (before), 535.3 kB (after)
 ! Using parallel search with 8 workers.
 ! ----------------------------------------------------------------------------
 !               Branches  Non-fixed    W       Branch decision
                   10000k          5    8   F     0  = V3_3
                   10000k          5    1   F     1 != U0_0
                   10000k          4    4   F     0  = W1_0
                   10000k          5    2   F     1 != V4_3
                   10000k          9    7   F    -1  = V1_1
                   10000k          5    5         1 != W5_2
                   10000k          5    3        -1  = V5_0
                   10000k          6    6        -1 != U0_2
                   20000k          5    8            -
                   20000k          5    5         0 != W2_1
                   20000k          5    2         1  = U0_1
                   20000k          7    7   F    -1 != W2_3
                   20000k          5    1        -1 != U5_2
                   20000k          5    4        -1 != W3_1
                   20000k          4    6        -1  = W3_0
                   20000k          6    3   F    -1  = V1_1
                   30000k          7    8        -1  = W2_0
                   30000k          8    7   F    -1 != V1_2
                   30000k          4    6   F     1  = U0_1
                   30000k          4    2         0  = V0_1
 ! Time = 350.00s, Average fail depth = 15, Memory usage = 190.6 MB
 !               Branches  Non-fixed    W       Branch decision
                   30000k          5    5         0  = U2_1
                   30000k          4    1   F    -1  = V4_2
                   30000k          5    4   F     1 != U1_2
                   30000k          7    3         0 != V1_1
                   40000k          6    8         0 != V5_1
                   40000k          8    7         0 != V2_0
                   40000k          4    2   F    -1 != V1_1
                   40000k          5    1         0 != W3_3
                   40000k          5    5         0 != V1_3
                   40000k          4    4         1 != W2_0
                   40000k          6    3   F     0  = V1_2
                   40000k          4    6   F    -1  = V2_1
                   50000k          6    8            -
                   50000k          4    2        -1 != V4_1
                   50000k          7    3   F     0  = U5_0
                   50000k          4    1         0  = V2_3
                   50000k          5    4         0 != V1_1
                   50000k          4    6   F    -1 != U1_3
                   50000k          5    7        -1 != V4_1
                   50000k          9    5        -1  = W4_0
 ! Time = 599.52s, Average fail depth = 15, Memory usage = 298.1 MB
 !               Branches  Non-fixed    W       Branch decision
                   60000k          6    8   F     1  = U3_3
                   60000k          4    2         0  = U5_1
                   60000k          7    7        -1  = U3_1
                   60000k          5    4   F     1  = V2_1
                   60000k          5    6        -1  = V0_1
                   60000k          6    3        -1 != W0_0
                   60000k          6    5   F     0  = W4_2
                   60000k          4    1         1  = V4_1
                   70000k          7    8        -1 != W4_1
                   70000k          7    7        -1 != U5_3
                   70000k          5    4   F    -1  = W1_1
                   70000k          4    2   F    -1  = U5_1
                   70000k          5    6         0 != W5_2
                   70000k          5    5         0  = W3_2
                   70000k          8    3         0  = W3_3
                   70000k          4    1   F     1  = U1_1
                   80000k          5    8   F    -1  = U4_2
                   80000k          7    7        -1 != V4_3
                   80000k          5    4   F     0  = U4_0
                   80000k          6    5   F     1  = W1_1
 ! Time = 962.25s, Average fail depth = 15, Memory usage = 411.4 MB
 !               Branches  Non-fixed    W       Branch decision
                   80000k          6    6         1  = W5_2
                   80000k          7    3   F    -1  = U1_0
                   80000k          9    2   F    -1 != U4_2
                   80000k          4    1        -1  = U0_1
                   90000k          5    8        -1  = U2_0
                   90000k          8    7         1  = W4_1
                   90000k          5    4         1  = V5_1
                   90000k          5    6   F     1 != W1_2
                   90000k          5    5         0  = V1_2
                   90000k          8    3   F     1  = V2_1
                   90000k          8    2   F    -1  = V3_3
                   90000k          4    1         1 != W0_3
                     100M          5    8   F    -1 != W5_1
                     100M          7    7   F     0  = W2_2
                     100M          5    6         1 != V4_3
                     100M          9    3        -1 != V2_1
                     100M          6    5   F     1 != W0_2
                     100M          5    4         0 != V2_0
                     100M          5    2         0 != V3_2
                     100M          4    1         0 != V4_3
 ! Time = 1231.17s, Average fail depth = 15, Memory usage = 484.2 MB
 !               Branches  Non-fixed    W       Branch decision
                     110M          5    8        -1  = V3_2
                     110M          7    7         1 != V4_0
                     110M          6    5   F     1 != U3_1
                     110M          5    6         1 != U3_1
                     110M          7    3         0 != W1_3
                     110M          4    2   F     1  = W0_1
                     110M          4    1         0  = U1_1
                     110M          7    4   F    -1  = V2_0
                     120M          5    8   F    -1  = V1_3
                     120M          7    7   F     0  = U4_3
                     120M          5    5   F     1 != V5_2
                     120M          6    6        -1  = V3_3
                     120M          6    3   F     0  = V4_2
                     120M          4    2   F    -1  = U2_2
                     120M          4    1   F     1 != U4_2
                     120M          8    4         0 != V5_2
                     130M          5    8         0  = V3_0
                     130M          8    7   F    -1  = U2_2
                     130M          5    5         0 != U5_0
                     130M          7    3   F    -1  = W1_2
 ! Time = 1581.45s, Average fail depth = 15, Memory usage = 581.9 MB
 !               Branches  Non-fixed    W       Branch decision
                     130M          5    6   F    -1 != W0_2
                     130M          4    1        -1 != W0_2
                     130M          4    2         1 != W3_2
                     130M          7    4   F     1  = W1_0
                     140M          5    8         1 != U4_1
                     140M          6    7   F    -1  = U1_3
                     140M          5    5         1  = V4_1
                     140M          6    3         0 != V1_1
                     140M          6    6   F    -1 != W3_3
                     140M          5    2         0  = V5_3
                     140M          4    1        -1  = U1_3
                     140M          5    4         1 != V0_0
                     150M          5    8   F    -1  = W3_3
                     150M         12    7   F     1 != W3_2
                     150M          6    3   F     1  = W4_3
                     150M          5    5   F    -1 != U5_3
                     150M          5    6         1  = W4_0
                     150M          4    2   F    -1 != W0_3
                     150M          4    1         0 != V5_2
                     150M          5    4         0 != U5_3
 ! Time = 1863.92s, Average fail depth = 16, Memory usage = 676.0 MB
 !               Branches  Non-fixed    W       Branch decision
                     160M          5    8         0 != W3_3
                     160M          9    7   F    -1  = V1_3
                     160M          5    3         0  = V3_1
                     160M          5    5   F    -1  = W4_1
                     160M          6    6   F     0 != V5_0
                     160M          4    1   F    -1 != U5_1
                     160M          4    2         1  = U2_2
                     160M          6    4   F     1 != U1_0
                     170M          5    8        -1 != V0_2
                     170M          9    7   F     1 != W1_2
                     170M          7    3        -1  = V0_3
                     170M          5    5   F     1  = V3_3
                     170M          5    6   F     1  = W2_1
                     170M          4    1   F    -1  = V3_2
                     170M          4    2         0 != W4_3
                     170M          6    4        -1  = V0_1
                     180M          5    8   F     0  = U5_2
                     180M          7    7   F     0  = U2_3
                     180M          8    3         0 != U1_1
                     180M          5    5   F     1 != U0_0
 ! Time = 2191.25s, Average fail depth = 16, Memory usage = 791.1 MB
 !               Branches  Non-fixed    W       Branch decision
                     180M          5    6        -1 != W4_2
                     180M          5    1   F     0  = V5_3
                     180M          4    2   F     1  = U3_3
                     180M          5    4         0 != V0_0
                     190M          5    8            -
                     190M         10    7        -1  = W1_3
                     190M          6    5         0  = V5_0
                     190M          8    3   F    -1  = V2_1
                     190M          5    6   F     1  = V3_1
                     190M          4    1   F     1 != W1_1
                     190M          4    2   F     0  = W1_2
                     190M          6    4   F     0  = W5_0
                     200M          5    8        -1  = U2_3
                     200M          8    7   F     0  = V2_3
                     200M          5    6         0 != W4_1
                     200M          6    3         1 != W2_2
                     200M          6    5         1  = V0_0
                     200M          4    1         1 != U4_2
                     200M          4    2         1 != U2_3
                     200M          5    4        -1 != V0_0
 ! Time = 2480.21s, Average fail depth = 16, Memory usage = 889.6 MB
 !               Branches  Non-fixed    W       Branch decision
                     210M          5    8         1 != V1_3
                     210M          6    7   F     1 != U5_3
                     210M          5    6   F    -1  = U0_3
                     210M          8    3   F    -1  = W2_1
                     210M          6    5   F    -1 != W1_1
                     210M          4    1         1  = W4_0
                     210M          4    2        -1 != V5_1
                     210M          6    4   F    -1 != W2_2
                     220M          5    8   F    -1  = W5_0
                     220M          7    7   F     1  = W0_1
                     220M          4    6   F     0 != W1_0
                     220M          7    3   F    -1 != U4_2
                     220M          5    5   F     1 != W4_0
                     220M          4    1   F    -1  = W0_0
                     220M          5    2         1 != U2_2
                     220M          6    4   F     1 != W2_1
                     230M          5    8   F    -1  = U1_2
                     230M          5    6   F     1 != U3_0
                     230M          4    1         0  = V0_2
                     230M          6    3   F    -1  = U1_0
 ! Time = 2809.11s, Average fail depth = 16, Memory usage = 1.0 GB
 !               Branches  Non-fixed    W       Branch decision
                     230M          5    5        -1  = V5_0
                     230M          7    7         0 != V4_3
                     230M          4    2        -1  = U3_2
                     230M          5    4   F     0  = V1_0
                     240M          5    8        -1  = W4_0
                     240M          5    1         0 != V1_3
                     240M          5    6         1  = U0_0
                     240M          6    5         0 != W4_1
                     240M          9    7         1 != U0_1
                     240M          4    2         1 != V3_2
                     240M          9    3         1 != W0_0
                     240M          6    4   F     0  = V0_2
                     250M          5    8   F     0  = V1_3
                     250M          4    1         0 != W3_3
                     250M          5    6   F    -1 != U2_1
                     250M          7    7   F    -1  = U5_2
                     250M          6    5   F     1 != W5_3
                     250M          7    3         0  = V1_1
                     250M          4    2   F     1 != U3_0
                     250M          5    4         0 != U2_0
 ! Time = 3092.17s, Average fail depth = 16, Memory usage = 1.1 GB
 !               Branches  Non-fixed    W       Branch decision
                     260M          6    8            -
                     260M          4    1   F     1  = V5_3
                     260M          5    6   F    -1  = U1_2
                     260M          6    5         0 != U3_1
                     260M          5    3   F    -1  = U4_1
                     260M         12    7   F    -1  = W2_3
                     260M          4    2         0  = U0_2
                     260M          5    4         1 != W3_3
                     270M          6    8         0  = V4_1
                     270M          5    6   F     0  = U3_2
                     270M          5    1   F     0  = W2_2
                     270M          6    5        -1  = V2_0
                     270M          4    3         0  = V5_1
                     270M          5    2   F    -1  = W3_2
                     270M          8    7   F    -1  = V2_1
                     270M          7    4   F     0  = W2_3
                     280M          5    8         0 != W3_1
                     280M          5    6         0  = W2_2
                     280M          5    1         1  = W0_3
                     280M          5    5         1 != W5_1
 ! Time = 3432.62s, Average fail depth = 16, Memory usage = 1.2 GB
 !               Branches  Non-fixed    W       Branch decision
                     280M          7    3   F    -1 != U2_3
                     280M          7    7         1 != W2_1
                     280M          5    2   F     0  = W5_3
                     280M          4    4         1  = V0_0
                     290M          4    8   F    -1  = U2_2
                     290M          5    6         0 != V5_0
                     290M          5    1   F     1 != V3_2
                     290M          6    5         0 != W0_2
                     290M         10    3   F     0  = V2_1
                     290M          6    7        -1  = W5_3
                     290M          4    2   F     0  = U5_3
                     290M          6    4   F     0  = W5_3
                     300M          5    8   F     1 != U0_2
                     300M          5    6   F    -1  = U3_1
                     300M          4    1   F     0  = W0_3
                     300M          7    3   F    -1  = U5_3
                     300M          7    5         0  = W1_0
                     300M          4    2        -1 != V1_1
                     300M          7    7   F    -1  = V0_0
                     300M          6    4         1  = U4_2
 ! Time = 3702.32s, Average fail depth = 16, Memory usage = 1.3 GB
 !               Branches  Non-fixed    W       Branch decision
                     310M          6    8        -1  = V2_1
                     310M          6    6   F     1 != W1_3
                     310M          5    1   F     0  = W3_3
                     310M          7    3         1 != W1_3
                     310M          4    2   F     1 != V3_1
                     310M          6    5        -1  = V5_2
                     310M          5    4         1 != V1_2
                     310M          6    7   F     0  = U2_3
                     320M          5    8   F     0  = V1_3
                     320M          6    6   F     0  = W3_0
                     320M          4    1   F    -1 != U2_1
                     320M          6    5   F     1 != V5_2
                     320M          4    2         1 != U4_1
                     320M          7    3         0 != V3_1
                     320M         11    7        -1  = V1_2
                     320M          4    4   F     1  = V4_3
                     330M          6    8         0  = U0_0
                     330M          5    6   F     1 != V2_2
                     330M          5    1   F    -1  = U2_3
                     330M          5    2         0  = W0_1
 ! Time = 4046.70s, Average fail depth = 16, Memory usage = 1.4 GB
 !               Branches  Non-fixed    W       Branch decision
                     330M          4    5        -1 != V1_2
                     330M          7    7        -1 != W3_0
                     330M          7    3        -1 != W5_2
                     330M          6    4   F     0  = U5_3
                     340M          7    8   F    -1 != U1_2
                     340M          6    6         1 != U0_0
                     340M          5    1   F    -1  = W1_3
                     340M          4    2         0 != V4_3
                     340M         16    7        -1  = V4_2
                     340M          4    5         1 != V2_3
                     340M         10    3   F     1 != W2_1
                     340M          6    4        -1  = W0_2
                     350M          5    8        -1 != U5_0
                     350M          4    1        -1  = W1_1
                     350M          6    6        -1  = W2_1
                     350M          4    2        -1  = U3_0
                     350M          6    3   F    -1  = W1_0
                     350M          4    5   F    -1  = W3_2
                     350M         12    7        -1 != W5_3
                     350M          4    4         1 != V5_1
 ! Time = 4331.07s, Average fail depth = 16, Memory usage = 1.5 GB
 !               Branches  Non-fixed    W       Branch decision
                     360M          6    8            -
                     360M          5    1   F     0  = U4_3
                     360M          6    6        -1  = U3_1
                     360M         12    3   F    -1  = V5_2
                     360M          4    2   F     1 != W0_1
                     360M          6    5        -1 != W4_3
                     360M          7    7         0 != V1_3
                     360M          4    4   F     1  = V0_1
                     370M          5    8   F     1 != W0_0
                     370M          5    1         0 != V0_1
                     370M          5    6   F    -1 != U4_3
                     370M          4    2   F     1  = W0_1
                     370M         11    7        -1  = V2_2
                     370M          8    3        -1 != U3_3
                     370M          4    5   F    -1  = W3_2
                     370M          5    4        -1 != V1_2
                     380M          6    8            -
                     380M          5    1         0  = U2_1
                     380M          5    6         0 != U3_1
                     380M         15    7   F     0 != V2_1
 ! Time = 4649.65s, Average fail depth = 16, Memory usage = 1.7 GB
 !               Branches  Non-fixed    W       Branch decision
                     380M          4    2         0 != W0_1
                     380M          4    5   F     0 != V5_2
                     380M          8    3        -1 != V4_3
                     380M          5    4        -1 != V3_1
                     390M          6    8   F     0  = U0_0
                     390M          4    1   F    -1 != V1_1
                     390M          7    7         0  = U1_0
                     390M          6    6   F     1  = V3_0
                     390M          4    2         1 != W2_3
                     390M         15    3        -1 != V0_1
                     390M          4    5   F     1 != U1_3
                     390M          6    4         0  = W2_2
                     400M          5    8   F     0 != V2_0
                     400M          5    1         1  = W0_3
                     400M         13    7   F    -1 != U2_2
                     400M          5    6   F     1  = W3_0
                     400M          4    2        -1  = V1_2
                     400M          8    3   F     1  = U5_3
                     400M          4    5   F     1  = V4_2
                     400M          6    4   F     1  = V0_2
 ! Time = 4926.94s, Average fail depth = 16, Memory usage = 1.7 GB
 !               Branches  Non-fixed    W       Branch decision
                     410M          6    8        -1  = W5_1
                     410M          5    1         1  = V0_2
                     410M         11    7   F     1  = V2_2
                     410M          4    2         1 != W4_3
                     410M          5    6   F     1 != W0_1
                     410M          6    3        -1 != W3_2
                     410M          4    5         1  = V1_3
                     410M          5    4   F    -1  = V3_1
                     420M          7    8   F     0 != W4_3
                     420M          5    1   F     1 != W3_0
                     420M          4    2        -1 != W1_2
                     420M         12    3   F     1  = U1_2
                     420M          8    7         0 != V2_3
                     420M          5    6         0  = W4_2
                     420M          5    5   F    -1 != U1_0
                     420M          6    4        -1  = V1_2
                     430M          6    8   F     1  = U4_1
                     430M          5    1         1 != W3_2
                     430M          5    2   F     1  = U3_2
                     430M          6    6         1  = V5_1
 ! Time = 5274.34s, Average fail depth = 16, Memory usage = 1.9 GB
 !               Branches  Non-fixed    W       Branch decision
                     430M         10    3        -1 != U1_3
                     430M          7    7   F     1 != W1_0
                     430M          6    5   F    -1 != W5_2
                     430M          5    4   F    -1 != U5_2
                     440M          6    8   F     1 != U0_3
                     440M          4    1         1 != V3_2
                     440M          4    2   F     0  = W0_3
                     440M          6    6   F    -1  = V4_3
                     440M          6    3         1  = W4_1
                     440M          9    7   F     0 != V3_1
                     440M          6    5   F    -1  = U2_3
                     440M          5    4   F    -1 != U5_2
                     450M          6    8   F    -1  = U4_0
                     450M          7    1   F     0  = V5_1
                     450M          4    2   F     1 != V3_1
                     450M          7    7   F    -1 != W1_1
                     450M          4    6   F     0  = V2_3
                     450M          9    3   F    -1  = V4_2
                     450M          6    5        -1 != V2_3
                     450M          6    4   F    -1 != W0_3
 ! Time = 5545.50s, Average fail depth = 16, Memory usage = 2.0 GB
 !               Branches  Non-fixed    W       Branch decision
                     460M          7    8         0 != U3_2
                     460M          5    1         0  = W4_0
                     460M          4    2   F     1  = U0_1
                     460M          6    7         0 != U5_1
                     460M         15    3        -1 != V1_2
                     460M          6    5   F     0 != V1_3
                     460M          6    6   F     1  = V4_2
                     460M          5    4        -1 != V1_2
                     470M          6    8   F     1  = W5_1
                     470M          4    1        -1  = U2_3
                     470M          4    2   F     0  = W1_0
                     470M         12    7        -1  = V2_0
                     470M          5    5   F     0  = W3_1
                     470M          6    3   F    -1 != U5_1
                     470M          6    6         0  = U2_2
                     470M          6    4   F     0  = V4_0
                     480M          7    8   F    -1 != U4_0
                     480M          4    1   F     0  = V5_1
                     480M          4    2        -1  = V1_1
                     480M         12    7   F     1  = V2_0
 ! Time = 5872.25s, Average fail depth = 16, Memory usage = 2.1 GB
 !               Branches  Non-fixed    W       Branch decision
                     480M          5    5   F     1 != U5_1
                     480M          7    3        -1 != U2_1
                     480M          6    6         0 != V2_1
                     480M          6    4   F     0  = W1_3
                     490M          6    8         0 != U2_0
                     490M          4    1         0 != W3_0
                     490M          5    2   F    -1  = V5_3
                     490M          5    5   F     0  = V5_2
                     490M         11    3         1  = U0_1
                     490M          5    6   F     1  = W5_1
                     490M          8    7         0 != W3_2
                     490M          6    4         1 != U5_0
                     500M          6    8   F     1  = W2_0
                     500M          4    1   F    -1  = W4_3
                     500M          4    2   F     1  = W4_3
                     500M          6    5   F     1  = U2_3
                     500M          6    6   F     0  = V0_1
                     500M         12    3   F     0 != U3_2
                     500M         12    7        -1  = V5_2
                     500M          6    4         1 != U2_0
 ! Time = 6163.92s, Average fail depth = 16, Memory usage = 2.2 GB
 !               Branches  Non-fixed    W       Branch decision
                     510M          6    8         0  = U0_2
                     510M          5    1         0  = U0_2
                     510M          4    2   F     1 != W0_3
                     510M          6    5   F     1 != V0_3
                     510M         10    7        -1  = V1_1
                     510M          6    6   F    -1  = V1_0
                     510M          6    3   F     0  = U3_1
                     510M          7    4   F     1  = W2_2
                     520M          7    8   F     1 != U2_0
                     520M          5    1   F    -1  = W2_1
                     520M          4    2        -1 != V0_1
                     520M          6    5   F     1  = W2_3
                     520M         15    7        -1 != V1_1
                     520M          6    6         1  = U4_1
                     520M          9    3        -1 != W4_3
                     520M          5    4         0  = V0_1
                     530M          6    8   F    -1  = W5_1
                     530M          4    1   F    -1 != V5_1
                     530M          4    2         0  = V5_1
                     530M          5    5         0  = V2_1
 ! Time = 6500.34s, Average fail depth = 16, Memory usage = 2.3 GB
 !               Branches  Non-fixed    W       Branch decision
                     530M          7    7   F     1  = U1_0
                     530M         14    3         0  = V1_1
                     530M          5    6   F     0  = U2_0
                     530M          6    4         0  = W1_2
                     540M          6    8   F    -1  = W1_3
                     540M          4    1         0  = V5_2
                     540M          4    2   F    -1  = V3_1
                     540M          9    7         0  = V1_3
                     540M          8    3         0 != V0_3
                     540M          5    5   F     1  = W0_2
                     540M          5    6         1  = U5_1
                     540M          6    4   F     1 != V4_1
                     550M          5    8   F    -1  = U5_0
                     550M          5    1         1  = W3_0
                     550M          4    2   F    -1 != U0_3
                     550M          7    7   F    -1  = V3_1
                     550M          7    3   F    -1 != U3_0
                     550M          6    5   F     0  = U5_1
                     550M          5    6   F     0  = U3_1
                     550M          4    4   F    -1  = W0_0
 ! Time = 6758.61s, Average fail depth = 16, Memory usage = 2.4 GB
 !               Branches  Non-fixed    W       Branch decision
                     560M          6    8   F    -1  = V4_3
                     560M          4    1        -1  = U1_0
                     560M          5    2         0 != W5_0
                     560M         12    7   F     1 != W2_1
                     560M         12    3   F     1  = V5_1
                     560M          6    5   F     0 != W5_2
                     560M          6    6         1 != V4_0
                     560M          5    4   F     1 != V2_2
                     570M          6    8   F    -1  = U1_1
                     570M          5    1   F    -1  = V0_1
                     570M          4    2         0 != U1_2
                     570M          7    7   F    -1 != U2_1
                     570M          6    5   F     1 != V0_0
                     570M          8    3         1  = W1_0
                     570M          6    6   F    -1 != V2_3
                     570M          5    4         1 != V0_1
                     580M          6    8         0 != U3_3
                     580M          5    1         0 != V3_2
                     580M          4    2   F     1 != W4_1
                     580M          5    5         1  = W3_1
 ! Time = 7108.52s, Average fail depth = 16, Memory usage = 2.5 GB
 !               Branches  Non-fixed    W       Branch decision
                     580M          5    6         0 != U5_0
                     580M          8    7         1 != W4_1
                     580M          6    4   F    -1  = W1_2
                     590M          6    8            -
                     580M          6    3   F    -1  = U3_1
                     590M          6    1   F     1 != V2_1
submitit INFO (2023-04-30 21:21:12,351) - Job has timed out. Ran 119 minutes out of requested 121 minutes.
submitit WARNING (2023-04-30 21:21:12,351) - Caught signal SIGUSR2 on cpunode26: this job is timed-out.
submitit INFO (2023-04-30 21:21:12,351) - Not checkpointing nor requeuing since I am a slave (procid=4).
submitit WARNING (2023-04-30 21:21:12,350) - Bypassing signal SIGCONT
 ! ----------------------------------------------------------------------------
 ! Search terminated by limit, no solution found.
 ! ----------------------------------------------------------------------------
 ! Number of branches     : 4708333085
 ! Number of fails        : 2300999357
 ! Total memory usage     : 2.6 GB (2.6 GB CP Optimizer + 0.0 GB Concert)
 ! Time spent in solve    : 7200.06s (7200.04s engine + 0.02s extraction)
 ! Search speed (br. / s) : 653931.5
 ! ----------------------------------------------------------------------------
Unknown
Saving stats to: /h/30/pashootan/Matrix-Mult-CP/logs/2x2x2_6_Apr30_19:21:46/27537_4_stats.csv
submitit INFO (2023-04-30 21:21:50,148) - Job completed successfully
